; benchmark generated from python API
(set-info :status unknown)
(declare-datatypes ((IntState 0)) (((Mk1 (val1 Int)) (Mk2 (val2 Int)))))
 (declare-fun c_main_~j~6 () Int)
(declare-fun c_main_~k~6 () Int)
(declare-fun c_main_~i~6 () Int)
(assert
 (let (($x174 (exists ((v_nnf_78_st IntState) (val!159 Int) )(let ((?x56 (val2 v_nnf_78_st)))
 (let (($x26 (<= ?x56 4)))
 (let (($x25 (and (<= (+ ?x56 2) c_main_~k~6) (<= c_main_~j~6 (+ (* 2 ?x56) 1)) $x26)))
 (let (($x52 (not (= v_nnf_78_st (Mk1 val!159)))))
 (and $x52 $x25))))))
 ))
 (let ((?x149 (* 2 c_main_~i~6)))
 (let (($x84 (<= c_main_~j~6 ?x149)))
 (let (($x92 (<= c_main_~i~6 4)))
 (let (($x5 (<= c_main_~j~6 (+ ?x149 1))))
 (let (($x61 (exists ((v_nnf_78 Int) )(let (($x91 (<= v_nnf_78 4)))
 (and (<= (+ v_nnf_78 2) c_main_~k~6) (<= c_main_~j~6 (+ (* 2 v_nnf_78) 1)) $x91)))
 ))
 (and (and $x84 $x92 $x61) (not (and $x5 $x92 $x84 $x174))))))))))
(check-sat)
